47 36 19 49 46 48 
31 62 88 50 26 
2 15 57 87 13 
76 12 54 55 25 
92 42 14 44 38 43 100 91 93 
39 23 67 56 4 
5 61 16 86 37 97 
28 29 79 81 78 34 35 77 
63 64 11 90 10 32 70 
21 73 40 53 
94 6 
83 45 8 84 17 60 89 
27 69 30 51 66 20 1 
95 59 98 85 99 96 
52 82 7 18 
33 65 71 9 3 68 24 80 
72 75 41 22 74 58 
